
(set-logic ALL) 

(declare-datatype MyList ((Nil) (Cons (head Real) (tail MyList)) )) 
(declare-fun l0 () MyList) 
(declare-fun l1 () MyList) 
(declare-fun l2 () MyList) 
(declare-fun l3 () MyList) 
(declare-fun i0 () Real) 
(declare-fun i1 () Real) 
(assert (or (= l1 Nil) (= l2 l3) (= l3 l3)) )
(assert (= l1 l0) )
(assert (= l0 l2) )
(assert (and (= l3 l3) (= l0 l2) (= l3 l1)) )
(assert (or (= l2 Nil) (= l0 Nil) (= l3 l2) (= l1 Nil)) )
(assert (= l1 Nil) )
(assert (= l0 Nil) )
(assert (and (= l0 Nil) (= l0 Nil)) )
(check-sat)
